\ Model Cl_45_Ins_3.lp
\ LP format - for model browsing. Use MPS format to capture full model detail.
Maximize
 
Subject To
 obj1: y[0] = 0
 obj2: y[1] = 0
 obj1_Exp: - y[0] + 99 x[0] + 98 x[1] + 98 x[2] + 92 x[3] + 92 x[4]
   + 89 x[5] + 88 x[6] + 87 x[7] + 87 x[8] + 81 x[9] + 81 x[10] + 79 x[11]
   + 70 x[12] + 69 x[13] + 66 x[14] + 65 x[15] + 65 x[16] + 63 x[17]
   + 57 x[18] + 57 x[19] + 52 x[20] + 48 x[21] + 45 x[22] + 42 x[23]
   + 41 x[24] + 41 x[25] + 40 x[26] + 39 x[27] + 34 x[28] + 31 x[29]
   + 29 x[30] + 29 x[31] + 28 x[32] + 25 x[33] + 23 x[34] + 19 x[35]
   + 18 x[36] + 17 x[37] + 14 x[38] + 14 x[39] + 11 x[40] + 10 x[41]
   + 7 x[42] + 2 x[43] + x[44] = 0
 obj2_Exp: - y[1] + 56 x[0] + 85 x[1] + 68 x[2] + 16 x[3] + 90 x[4]
   + 71 x[5] + 85 x[6] + 3 x[7] + 66 x[8] + 12 x[9] + 85 x[10] + 44 x[11]
   + 97 x[12] + 21 x[13] + 19 x[14] + 65 x[15] + 30 x[16] + 42 x[17]
   + 72 x[18] + 17 x[19] + 32 x[20] + 44 x[21] + 41 x[22] + 31 x[23]
   + 25 x[24] + 46 x[25] + 47 x[26] + 29 x[27] + 25 x[28] + 65 x[29]
   + 87 x[30] + 67 x[31] + 19 x[32] + 73 x[33] + 96 x[34] + 41 x[35]
   + 93 x[36] + 86 x[37] + 11 x[38] + 3 x[39] + 83 x[40] + 9 x[41]
   + 50 x[42] + 62 x[43] + 17 x[44] = 0
 Budget: 109 x[0] + 108 x[1] + 108 x[2] + 102 x[3] + 102 x[4] + 99 x[5]
   + 98 x[6] + 97 x[7] + 97 x[8] + 91 x[9] + 91 x[10] + 89 x[11] + 80 x[12]
   + 79 x[13] + 76 x[14] + 75 x[15] + 75 x[16] + 73 x[17] + 67 x[18]
   + 67 x[19] + 62 x[20] + 58 x[21] + 55 x[22] + 52 x[23] + 51 x[24]
   + 51 x[25] + 50 x[26] + 49 x[27] + 44 x[28] + 41 x[29] + 39 x[30]
   + 39 x[31] + 38 x[32] + 35 x[33] + 33 x[34] + 29 x[35] + 28 x[36]
   + 27 x[37] + 24 x[38] + 24 x[39] + 21 x[40] + 20 x[41] + 17 x[42]
   + 12 x[43] + 11 x[44] <= 747
Bounds
Binaries
 x[0] x[1] x[2] x[3] x[4] x[5] x[6] x[7] x[8] x[9] x[10] x[11] x[12] x[13]
 x[14] x[15] x[16] x[17] x[18] x[19] x[20] x[21] x[22] x[23] x[24] x[25]
 x[26] x[27] x[28] x[29] x[30] x[31] x[32] x[33] x[34] x[35] x[36] x[37]
 x[38] x[39] x[40] x[41] x[42] x[43] x[44]
Generals
 y[0] y[1]
End
